(set-logic HORN)
(set-info :source |
  Benchmark: test_safe_2019/termination/quicksort.3.ml
  Generated by MoCHi
|)
(set-info :status unknown)
(declare-fun |fail_44883[0:0]| ( Int) Bool)
(declare-fun |qs[0:20]| ( Bool  Int  Int  Int  Int  Int  Int  Bool  Int  Int  Int  Int  Int  Bool  Int  Int  Int  Int  Int  Int) Bool)
(assert (not (exists ((x0 Int)) (|fail_44883[0:0]| x0))))
(assert (forall ((x0 Int)(var49 Int)(x27 Int)(x26 Int)(var36 Bool)(var37 Int)(var38 Int)(var39 Int)(var40 Int)(var41 Int)(var42 Int)(var43 Bool)(var44 Int)(var45 Int)(var46 Int)(var47 Int)(var48 Int)(x24 Int)(x25 Int)(x28 Int)) (=> (and (|qs[0:20]| var36 var37 var38 var39 var40 var41 var42 var43 var44 var45 var46 var47 var48 true x24 x25 x26 x27 x28 var49) (and (>= var49 1) (and (<= x27 0) (or (<= (+ 1 x27) 0) (<= x26 0))))) (|fail_44883[0:0]| x0))))
(assert (forall ((x18 Bool)(x13 Int)(x16 Int)(x14 Int)(x15 Int)(x17 Int)(x0 Int)(x11 Bool)(x9 Int)(x7 Int)(x5 Int)(x3 Int)(x1 Int)(x12 Bool)(x10 Int)(x8 Int)(x6 Int)(x4 Int)(x2 Int)(x20 Int)) (=> (and (= x0 0) (and (= x13 0) (and (= x16 0) (and (= x14 0) (and (= x15 0) (and (= x17 0) (and (= x9 x13) (and (= x9 x10) (and (= x7 x16) (and (= x7 x8) (and (= x5 x14) (and (= x5 x6) (and (= x3 x15) (and (= x3 x4) (and (= x1 x17) (and (= x1 x2) (and (not x18) (and (not x11) (= x11 x12))))))))))))))))))) (|qs[0:20]| x18 x13 x16 x14 x15 x17 x0 x11 x9 x7 x5 x3 x1 x12 x10 x8 x6 x4 x2 x20))))
(check-sat)
(get-model)
(exit)
